certificates/rado_a7_c222_N32.cnf
c Rad2 upper bound instance: x1 + 7*x2 - x3 = 222, interval [1,32]
p cnf 32 192
1 3 32 0
-1 -3 -32 0
2 4 32 0
-2 -4 -32 0
3 5 32 0
-3 -5 -32 0
4 6 32 0
-4 -6 -32 0
5 7 32 0
-5 -7 -32 0
1 6 31 0
-1 -6 -31 0
6 8 32 0
-6 -8 -32 0
2 7 31 0
-2 -7 -31 0
7 9 32 0
-7 -9 -32 0
3 8 31 0
-3 -8 -31 0
8 10 32 0
-8 -10 -32 0
4 9 31 0
-4 -9 -31 0
9 11 32 0
-9 -11 -32 0
5 10 31 0
-5 -10 -31 0
10 12 32 0
-10 -12 -32 0
6 11 31 0
-6 -11 -31 0
11 13 32 0
-11 -13 -32 0
7 12 31 0
-7 -12 -31 0
12 14 32 0
-12 -14 -32 0
1 13 30 0
-1 -13 -30 0
8 13 31 0
-8 -13 -31 0
13 15 32 0
-13 -15 -32 0
2 14 30 0
-2 -14 -30 0
9 14 31 0
-9 -14 -31 0
14 16 32 0
-14 -16 -32 0
3 15 30 0
-3 -15 -30 0
10 15 31 0
-10 -15 -31 0
15 17 32 0
-15 -17 -32 0
4 16 30 0
-4 -16 -30 0
11 16 31 0
-11 -16 -31 0
16 18 32 0
-16 -18 -32 0
5 17 30 0
-5 -17 -30 0
12 17 31 0
-12 -17 -31 0
17 19 32 0
-17 -19 -32 0
6 18 30 0
-6 -18 -30 0
13 18 31 0
-13 -18 -31 0
18 20 32 0
-18 -20 -32 0
7 19 30 0
-7 -19 -30 0
14 19 31 0
-14 -19 -31 0
19 21 32 0
-19 -21 -32 0
1 20 29 0
-1 -20 -29 0
8 20 30 0
-8 -20 -30 0
15 20 31 0
-15 -20 -31 0
20 22 32 0
-20 -22 -32 0
2 21 29 0
-2 -21 -29 0
9 21 30 0
-9 -21 -30 0
16 21 31 0
-16 -21 -31 0
21 23 32 0
-21 -23 -32 0
3 22 29 0
-3 -22 -29 0
10 22 30 0
-10 -22 -30 0
17 22 31 0
-17 -22 -31 0
22 24 32 0
-22 -24 -32 0
4 23 29 0
-4 -23 -29 0
11 23 30 0
-11 -23 -30 0
18 23 31 0
-18 -23 -31 0
23 25 32 0
-23 -25 -32 0
5 24 29 0
-5 -24 -29 0
12 24 30 0
-12 -24 -30 0
19 24 31 0
-19 -24 -31 0
24 26 32 0
-24 -26 -32 0
6 25 29 0
-6 -25 -29 0
13 25 30 0
-13 -25 -30 0
20 25 31 0
-20 -25 -31 0
25 27 32 0
-25 -27 -32 0
7 26 29 0
-7 -26 -29 0
14 26 30 0
-14 -26 -30 0
21 26 31 0
-21 -26 -31 0
26 28 32 0
-26 -28 -32 0
1 27 28 0
-1 -27 -28 0
8 27 29 0
-8 -27 -29 0
15 27 30 0
-15 -27 -30 0
22 27 31 0
-22 -27 -31 0
27 29 32 0
-27 -29 -32 0
2 28 0
-2 -28 0
9 28 29 0
-9 -28 -29 0
16 28 30 0
-16 -28 -30 0
23 28 31 0
-23 -28 -31 0
28 30 32 0
-28 -30 -32 0
3 28 29 0
-3 -28 -29 0
10 29 0
-10 -29 0
17 29 30 0
-17 -29 -30 0
24 29 31 0
-24 -29 -31 0
29 31 32 0
-29 -31 -32 0
4 28 30 0
-4 -28 -30 0
11 29 30 0
-11 -29 -30 0
18 30 0
-18 -30 0
25 30 31 0
-25 -30 -31 0
30 32 0
-30 -32 0
5 28 31 0
-5 -28 -31 0
12 29 31 0
-12 -29 -31 0
19 30 31 0
-19 -30 -31 0
26 31 0
-26 -31 0
6 28 32 0
-6 -28 -32 0
13 29 32 0
-13 -29 -32 0
20 30 32 0
-20 -30 -32 0
27 31 32 0
-27 -31 -32 0
