certificates/rado_a7_c222_N32.drat
-32 0
30 0
-18 0
16 0
20 0
-4 0
-28 0
-8 0
2 0
6 0
26 0
10 0
-14 0
-31 0
-22 0
-29 0
12 0
9 0
19 0
0
